TYPE : Vertex Cover
DIMENSION: 29
EDGE_DATA_SECTION:
0 2
0 9
0 26
0 27
1 9
1 10
1 20
1 24
2 10
2 12
2 13
2 17
3 10
3 11
3 12
3 18
3 20
4 8
4 25
4 26
5 9
5 13
5 20
5 22
5 25
5 28
6 14
6 16
6 18
6 21
6 22
6 24
7 21
7 27
8 25
8 27
9 12
9 16
9 22
9 25
10 16
10 27
11 13
11 20
12 13
12 15
12 16
12 17
12 23
13 17
14 25
14 26
16 21
17 21
17 25
17 26
17 27
18 28
19 20
19 25
20 24
21 24
21 26
22 23
22 25
22 26
23 25
23 27
24 28
25 26
25 27
-1
VERTEX_DEGREE:
4.0 4.0 5.0 5.0 3.0 6.0 6.0 2.0 3.0 7.0 5.0 3.0 8.0 5.0 3.0 1.0 5.0 7.0 3.0 2.0 6.0 6.0 6.0 4.0 5.0 11.0 7.0 7.0 3.0
VERTEX_COVER:
1 2 3 4 6 9 12 13 16 20 21 22 25 26 27 28
EOF
